p cnf 20 20
10 -15 20 0
15 -17 3 0
1 -2 18 0
20 -14 1 0
-20 -13 -6 0
-15 19 4 0
2 -9 13 0
6 3 -7 0
-11 14 10 0
2 -7 15 0
-8 -9 -4 0
16 -4 3 0
-14 10 -20 0
-1 2 -19 0
18 10 -20 0
-20 2 5 0
-6 -3 20 0
-8 -4 16 0
4 -19 -15 0
9 18 -4 0
